(set-logic QF_S)
(declare-fun var0 () String)
(assert (str.in.re var0 (re.++ (re.+ (re.* (str.to.re "0"))) (re.++ (re.+ (re.union (str.to.re "111") (str.to.re "2"))) (re.++ (re.* (re.* (str.to.re "3"))) (re.++ (re.* (re.union (str.to.re "4") (str.to.re "55"))) (re.++ (re.+ (re.* (str.to.re "666"))) (re.++ (re.* (re.union (str.to.re "777") (str.to.re "88"))) (re.++ (re.union (re.+ (str.to.re "99")) (re.+ (str.to.re "aa"))) (re.++ (re.* (re.union (str.to.re "bb") (str.to.re "ccc"))) (re.++ (re.union (re.+ (str.to.re "ddd")) (re.+ (str.to.re "eee"))) (re.* (re.* (str.to.re "f"))))))))))))))
(assert (<= 326 (str.len var0)))
(check-sat)